include /home/liufeng_pkuhpc/lustre3/zgh/GO_MD/md_scripts/lmp-periodic/def_setting.in
write_dump      all custom ready.dump id type x y z ix iy iz

group           gra type  1:3

fix             freeze gra setforce 0 0 0
thermo_style    custom step temp epair emol etotal press fmax
thermo          100
min_style       sd
minimize        0.0 20 2000 20000

fix             nvt all nvt temp 300 300 100.0
thermo_style    one
thermo          1000
run             2000000
# write_dump      all custom nvtequ.dump id type x y z vx vy vz ix iy iz
write_dump      all custom nvtequ.dump id type xu yu zu vx vy
