units          real
boundary       p p p
pair_style     lj/cut/coul/long 1.0
pair_modify    shift yes mix geometric
kspace_style   ewald 1.0e-4

atom_style     full
bond_style     harmonic
angle_style    harmonic
special_bonds  lj/coul 0.0 0.0 0.5

read_data /home/liufeng_pkuhpc/lustre3/zgh/GO_MD/receive/NA_pool/${lay_spacing}/GO.data

group gra type 1:4

fix freeze gra setforce 0 0 0
min_style sd
minimize 0.0 1.0e-8 2000 20000

fix nvt all nvt temp 300 300 100.0
run 2000000
write_dump all custom ready.dump id type x y z vx vy vz ix iy iz

# group OW type 
# variable add_f equal fcm(up_wall,z)
# fix freeze gra setforce 0 0 ${add_f}
# fix nvt all nvt temp 300 300 100.0
