units           real
boundary        p p p

pair_style      lj/cut/coul/long 12.0
pair_modify     shift yes mix geometric
kspace_style    pppm 1.0e-05

atom_style      full
bond_style      harmonic
angle_style     harmonic
special_bonds   lj/coul 0.0 0.0 0.5

read_data       ../GO.data
