units real
newton off
boundary p p f
pair_style lj/cut/coul/cut 10.0
pair_modify shift yes mix geometric
atom_style full
bond_style harmonic
angle_style harmonic
special_bonds lj/coul 0.0 0.0 0.5
