if "${debug} > 0" then &
"dump check all atom 100 check.dump"
group fix_atoms union gra walls
fix freeze fix_atoms setforce 0 0 0
thermo_style custom step temp epair emol etotal press fmax
thermo 10
min_style sd
minimize 0.0 1.0e-8 2000 20000
unfix freeze
group fix_atoms delete
