units real
atom_style full

read_data /home/liufeng_pkuhpc/lustre3/zgh/GO_MD/md_scripts/lmp/singleTIP3P.data
#read_data singleTIP3P.data
replicate 20 20 20
include /home/liufeng_pkuhpc/lustre3/zgh/GO_MD/md_scripts/lmp/TIP3P.forcefield
#include TIP3P.forcefield

velocity all create 300 1234
fix removeMomentum all momentum 100 linear 1 1 1
fix constrain all shake 1.0e-4 20 100 b 1 a 1 
#fix nve all nve
fix room all npt temp 300 300 100.0 iso 1.0 1.0 1000.0
run 0 
write_dump all atom water.dump
thermo 100
thermo_style custom step temp epair emol etotal press vol atoms
run 100000
